<number of tasks>
20

<cycle time>
1000

<order strength>
0,189


<task times>
1 108
2 90
3 67
4 286
5 107
6 65
7 468
8 444
9 126
10 50
11 143
12 450
13 275
14 125
15 143
16 215
17 85
18 45
19 204
20 488

<precedence relations>
1,6
2,7
3,5
4,8
4,9
5,11
6,10
7,12
8,14
9,13
10,15
11,16
13,17
15,18
16,19
17,20

<end>
